10
2 0 115
2 1 50
3 0 20
4 0 7
4 1 89
4 2 89
4 3 68
5 2 100
5 3 57
5 4 54
6 0 32
6 2 9
6 4 25
7 0 47
7 1 110
7 2 41
7 3 73
7 5 116
8 0 113
8 1 104
8 2 117
8 3 116
8 4 67
8 5 20
8 6 116
8 7 66
9 1 63
9 2 71
9 7 120
